db/data/1457018833105502963151793028319849539.z3.out
-------------------
2500.112386197
